100
150
100
100
100
99
99
99
99
98
98
96
96
95
95
93
92
92
91
91
90
88
85
84
84
82
81
80
80
76
75
74
73
73
72
71
71
70
69
69
68
67
65
65
65
64
64
64
64
63
62
61
61
61
60
57
57
56
56
54
52
52
51
51
51
50
48
48
48
47
46
46
46
45
45
45
44
44
44
43
43
43
42
42
41
41
41
41
39
39
38
37
36
36
36
34
34
33
33
32
32
31
